(set-logic QF_S)
(declare-fun var0 () Bool)
(declare-fun var1 () String)
(declare-fun var2 () String)
(declare-fun var3 () Int)
(declare-fun var4 () String)
(declare-fun var5 () String)
(declare-fun var6 () Int)
(assert (not var0))
(assert (str.prefixof var1 "a56&dm?"))
(assert (str.in.re (str.at (str.at var2 var3) (str.indexof var4 var5 var6)) (re.* (re.+ re.allchar))))
(assert (< (str.len "Ee""HE^/") (str.to.int var4)))
(check-sat)